% seed = 6920444

mint = 55;
% maxt = 233;

nActs = 42;
dur = [0,9,1,10,1,7,7,5,5,4,8,1,4,2,2,4,4,8,10,5,5,9,8,7,4,6,10,7,8,3,10,10,4,8,2,3,9,4,4,7,8,0];

nSkills = 4;
sreq = [| 0,0,0,0,
	| 1,1,0,3,
	| 3,4,0,4,
	| 0,5,2,5,
	| 5,0,6,3,
	| 2,0,6,4,
	| 7,0,5,7,
	| 7,0,6,1,
	| 0,4,2,6,
	| 0,3,5,6,
	| 4,2,5,0,
	| 3,0,3,2,
	| 1,0,2,3,
	| 6,4,0,6,
	| 4,2,0,4,
	| 2,0,3,5,
	| 7,0,1,7,
	| 4,5,0,4,
	| 5,3,0,5,
	| 0,1,6,4,
	| 4,0,3,6,
	| 3,0,3,2,
	| 3,6,6,0,
	| 7,0,7,2,
	| 4,6,6,0,
	| 0,4,5,5,
	| 3,0,6,4,
	| 3,0,5,2,
	| 3,1,1,0,
	| 5,7,6,0,
	| 2,4,3,0,
	| 3,0,3,5,
	| 1,0,5,5,
	| 6,5,6,0,
	| 6,2,0,3,
	| 0,4,3,3,
	| 4,1,0,3,
	| 7,3,4,0,
	| 0,2,5,7,
	| 0,6,4,4,
	| 2,0,3,2,
	| 0,0,0,0, |];

nResources = 30;
mastery = [| true,false,true,true,
	| false,true,false,true,
	| true,false,false,false,
	| true,false,false,false,
	| true,false,false,false,
	| false,false,true,false,
	| false,false,true,false,
	| true,false,true,true,
	| false,true,true,true,
	| false,true,true,false,
	| true,false,false,false,
	| false,false,true,true,
	| false,true,false,true,
	| true,false,true,true,
	| false,false,true,false,
	| false,false,true,false,
	| true,false,false,false,
	| true,false,true,true,
	| false,false,true,true,
	| true,true,true,false,
	| false,true,false,true,
	| true,false,true,false,
	| false,false,true,true,
	| false,false,true,false,
	| true,false,true,false,
	| false,false,false,true,
	| false,true,true,true,
	| true,false,true,true,
	| true,true,false,true,
	| true,false,false,true, |];

nPrecs = 73;
pred = [1,1,1,2,2,2,3,3,3,4,5,5,5,6,6,6,7,7,7,8,8,8,9,10,10,11,11,12,12,12,13,13,14,14,14,15,15,16,17,18,19,19,20,20,21,22,22,23,23,24,24,24,25,25,26,26,27,28,28,29,30,31,32,33,33,34,35,36,37,38,39,40,41];
succ = [2,3,4,17,5,24,32,39,8,20,12,6,7,10,28,15,19,14,15,9,13,22,11,25,16,41,40,34,37,31,33,30,18,35,23,20,16,36,23,26,27,20,36,21,31,33,37,26,31,36,29,32,34,30,27,38,29,37,32,39,38,38,34,41,35,35,40,41,40,39,42,42,42];

nUnrels = 519;
unpred = [2,2,2,2,2,2,2,2,3,3,3,3,3,3,3,3,3,3,3,3,3,3,3,3,3,3,3,3,3,3,3,4,4,4,4,4,4,4,4,4,4,4,4,4,4,4,4,4,4,4,4,4,4,4,4,4,4,4,4,4,4,5,5,5,5,5,5,5,5,6,6,6,6,6,6,6,6,6,6,6,6,6,6,6,6,6,7,7,7,7,7,7,7,7,7,7,7,7,7,7,7,7,8,8,8,8,8,8,8,8,8,8,8,8,8,8,8,8,8,8,8,8,8,9,9,9,9,9,9,9,9,9,9,9,9,9,9,9,9,9,9,9,9,9,9,9,9,9,9,9,9,9,10,10,10,10,10,10,10,10,10,10,10,10,10,10,10,10,10,10,10,10,10,11,11,11,11,11,11,11,11,11,11,11,11,11,11,11,11,11,11,11,11,11,11,11,11,11,11,11,11,12,12,12,12,12,12,12,12,12,12,12,12,12,12,12,12,12,12,12,12,12,12,13,13,13,13,13,13,13,13,13,13,13,13,13,13,13,13,13,13,13,13,13,14,14,14,14,14,14,14,14,14,14,14,14,14,14,14,14,14,15,15,15,15,15,15,15,15,15,15,15,15,15,15,15,15,15,15,16,16,16,16,16,16,16,16,16,16,16,16,16,16,16,16,16,16,16,16,16,16,16,17,17,17,17,17,17,17,17,17,17,17,17,17,17,17,17,17,18,18,18,18,18,18,18,18,18,18,18,18,18,18,18,18,18,18,19,19,19,19,19,19,19,19,19,19,19,19,19,20,20,20,20,20,20,20,20,20,20,20,20,20,20,20,21,21,21,21,21,21,21,21,21,21,21,21,21,21,21,21,21,22,22,22,22,22,22,22,22,22,22,22,22,22,22,23,23,23,23,23,23,23,23,23,23,23,23,24,24,24,24,24,24,24,24,24,25,25,25,25,25,25,25,25,25,25,26,26,26,26,26,26,26,26,26,26,26,27,27,27,27,27,27,27,27,27,27,27,27,28,28,28,28,28,28,28,28,29,29,29,29,29,29,29,29,29,29,29,30,30,30,30,30,30,30,30,30,31,31,31,31,31,31,31,31,32,32,32,32,32,32,33,33,33,33,33,34,34,34,34,34,35,35,35,35,35,36,36,36,36,37,37,37,38,38,39,39,40];
unsucc = [3,4,8,9,11,13,22,33,4,5,6,7,10,12,14,15,16,17,18,19,20,21,23,24,25,26,27,28,29,31,36,5,6,7,8,9,10,11,12,13,14,15,16,17,18,19,22,23,24,25,26,27,28,29,30,32,33,34,35,37,40,8,9,11,13,17,22,24,33,7,8,9,11,12,13,14,17,18,19,22,23,24,26,27,29,33,8,9,10,11,12,13,17,22,24,25,28,30,32,33,34,37,10,12,14,15,16,17,18,19,20,21,23,24,25,26,27,28,29,31,32,34,36,10,12,13,14,15,16,17,18,19,20,21,22,23,24,25,26,27,28,29,30,31,32,33,34,35,36,37,38,39,11,12,13,14,15,17,18,19,20,21,22,23,24,26,27,28,29,31,32,33,37,12,13,14,15,16,17,18,19,20,21,22,23,24,25,26,27,28,29,30,31,32,33,34,35,36,37,38,39,13,14,15,16,17,18,19,20,21,22,23,24,25,26,27,28,29,30,32,33,36,41,14,15,16,17,18,19,20,21,22,23,24,25,26,27,28,29,31,32,34,36,37,15,16,17,19,20,21,22,24,25,28,30,32,33,34,36,37,41,17,18,19,22,23,24,25,26,27,28,29,30,32,33,34,35,37,40,17,18,19,20,21,22,23,24,25,26,27,28,29,30,31,32,33,34,35,37,38,39,40,18,19,20,21,22,24,25,28,30,32,33,34,35,36,37,40,41,19,20,21,22,23,24,25,28,30,31,32,33,34,35,36,37,40,41,22,23,24,25,26,28,30,32,33,34,35,37,40,22,23,24,25,26,27,28,29,30,32,33,34,35,37,40,22,23,24,25,26,27,28,29,30,32,33,34,35,36,37,40,41,23,24,25,26,27,28,29,30,31,32,34,36,38,39,24,25,28,30,32,33,34,35,36,37,40,41,25,26,27,28,30,31,33,37,38,26,27,28,29,31,32,33,36,37,41,28,30,31,32,33,34,35,36,37,40,41,28,30,31,32,33,34,35,36,37,38,40,41,29,30,31,33,36,38,39,41,30,31,32,33,34,35,36,37,38,40,41,31,32,33,34,35,36,37,40,41,32,33,34,35,36,37,40,41,33,36,37,38,39,41,34,36,37,38,39,36,37,38,39,41,36,37,38,39,41,37,38,39,40,38,39,41,40,41,40,41,41];

USEFUL_RES = [{},
	{1,2,3,4,5,8,9,10,11,12,13,14,17,18,19,20,21,22,23,25,26,27,28,29,30},
	{1,2,3,4,5,8,9,10,11,12,13,14,17,18,19,20,21,22,23,25,26,27,28,29,30},
	{1,2,6,7,8,9,10,12,13,14,15,16,18,19,20,21,22,23,24,25,26,27,28,29,30},
	{1,2,3,4,5,6,7,8,9,10,11,12,13,14,15,16,17,18,19,20,21,22,23,24,25,26,27,28,29,30},
	{1,2,3,4,5,6,7,8,9,10,11,12,13,14,15,16,17,18,19,20,21,22,23,24,25,26,27,28,29,30},
	{1,2,3,4,5,6,7,8,9,10,11,12,13,14,15,16,17,18,19,20,21,22,23,24,25,26,27,28,29,30},
	{1,2,3,4,5,6,7,8,9,10,11,12,13,14,15,16,17,18,19,20,21,22,23,24,25,26,27,28,29,30},
	{1,2,6,7,8,9,10,12,13,14,15,16,18,19,20,21,22,23,24,25,26,27,28,29,30},
	{1,2,6,7,8,9,10,12,13,14,15,16,18,19,20,21,22,23,24,25,26,27,28,29,30},
	{1,2,3,4,5,6,7,8,9,10,11,12,13,14,15,16,17,18,19,20,21,22,23,24,25,27,28,29,30},
	{1,2,3,4,5,6,7,8,9,10,11,12,13,14,15,16,17,18,19,20,21,22,23,24,25,26,27,28,29,30},
	{1,2,3,4,5,6,7,8,9,10,11,12,13,14,15,16,17,18,19,20,21,22,23,24,25,26,27,28,29,30},
	{1,2,3,4,5,8,9,10,11,12,13,14,17,18,19,20,21,22,23,25,26,27,28,29,30},
	{1,2,3,4,5,8,9,10,11,12,13,14,17,18,19,20,21,22,23,25,26,27,28,29,30},
	{1,2,3,4,5,6,7,8,9,10,11,12,13,14,15,16,17,18,19,20,21,22,23,24,25,26,27,28,29,30},
	{1,2,3,4,5,6,7,8,9,10,11,12,13,14,15,16,17,18,19,20,21,22,23,24,25,26,27,28,29,30},
	{1,2,3,4,5,8,9,10,11,12,13,14,17,18,19,20,21,22,23,25,26,27,28,29,30},
	{1,2,3,4,5,8,9,10,11,12,13,14,17,18,19,20,21,22,23,25,26,27,28,29,30},
	{1,2,6,7,8,9,10,12,13,14,15,16,18,19,20,21,22,23,24,25,26,27,28,29,30},
	{1,2,3,4,5,6,7,8,9,10,11,12,13,14,15,16,17,18,19,20,21,22,23,24,25,26,27,28,29,30},
	{1,2,3,4,5,6,7,8,9,10,11,12,13,14,15,16,17,18,19,20,21,22,23,24,25,26,27,28,29,30},
	{1,2,3,4,5,6,7,8,9,10,11,12,13,14,15,16,17,18,19,20,21,22,23,24,25,27,28,29,30},
	{1,2,3,4,5,6,7,8,9,10,11,12,13,14,15,16,17,18,19,20,21,22,23,24,25,26,27,28,29,30},
	{1,2,3,4,5,6,7,8,9,10,11,12,13,14,15,16,17,18,19,20,21,22,23,24,25,27,28,29,30},
	{1,2,6,7,8,9,10,12,13,14,15,16,18,19,20,21,22,23,24,25,26,27,28,29,30},
	{1,2,3,4,5,6,7,8,9,10,11,12,13,14,15,16,17,18,19,20,21,22,23,24,25,26,27,28,29,30},
	{1,2,3,4,5,6,7,8,9,10,11,12,13,14,15,16,17,18,19,20,21,22,23,24,25,26,27,28,29,30},
	{1,2,3,4,5,6,7,8,9,10,11,12,13,14,15,16,17,18,19,20,21,22,23,24,25,27,28,29,30},
	{1,2,3,4,5,6,7,8,9,10,11,12,13,14,15,16,17,18,19,20,21,22,23,24,25,27,28,29,30},
	{1,2,3,4,5,6,7,8,9,10,11,12,13,14,15,16,17,18,19,20,21,22,23,24,25,27,28,29,30},
	{1,2,3,4,5,6,7,8,9,10,11,12,13,14,15,16,17,18,19,20,21,22,23,24,25,26,27,28,29,30},
	{1,2,3,4,5,6,7,8,9,10,11,12,13,14,15,16,17,18,19,20,21,22,23,24,25,26,27,28,29,30},
	{1,2,3,4,5,6,7,8,9,10,11,12,13,14,15,16,17,18,19,20,21,22,23,24,25,27,28,29,30},
	{1,2,3,4,5,8,9,10,11,12,13,14,17,18,19,20,21,22,23,25,26,27,28,29,30},
	{1,2,6,7,8,9,10,12,13,14,15,16,18,19,20,21,22,23,24,25,26,27,28,29,30},
	{1,2,3,4,5,8,9,10,11,12,13,14,17,18,19,20,21,22,23,25,26,27,28,29,30},
	{1,2,3,4,5,6,7,8,9,10,11,12,13,14,15,16,17,18,19,20,21,22,23,24,25,27,28,29,30},
	{1,2,6,7,8,9,10,12,13,14,15,16,18,19,20,21,22,23,24,25,26,27,28,29,30},
	{1,2,6,7,8,9,10,12,13,14,15,16,18,19,20,21,22,23,24,25,26,27,28,29,30},
	{1,2,3,4,5,6,7,8,9,10,11,12,13,14,15,16,17,18,19,20,21,22,23,24,25,26,27,28,29,30},
	{}];

POTENTIAL_ACT = [{2,3,4,5,6,7,8,9,10,11,12,13,14,15,16,17,18,19,20,21,22,23,24,25,26,27,28,29,30,31,32,33,34,35,36,37,38,39,40,41},
	{2,3,4,5,6,7,8,9,10,11,12,13,14,15,16,17,18,19,20,21,22,23,24,25,26,27,28,29,30,31,32,33,34,35,36,37,38,39,40,41},
	{2,3,5,6,7,8,11,12,13,14,15,16,17,18,19,21,22,23,24,25,27,28,29,30,31,32,33,34,35,37,38,41},
	{2,3,5,6,7,8,11,12,13,14,15,16,17,18,19,21,22,23,24,25,27,28,29,30,31,32,33,34,35,37,38,41},
	{2,3,5,6,7,8,11,12,13,14,15,16,17,18,19,21,22,23,24,25,27,28,29,30,31,32,33,34,35,37,38,41},
	{4,5,6,7,8,9,10,11,12,13,16,17,20,21,22,23,24,25,26,27,28,29,30,31,32,33,34,36,38,39,40,41},
	{4,5,6,7,8,9,10,11,12,13,16,17,20,21,22,23,24,25,26,27,28,29,30,31,32,33,34,36,38,39,40,41},
	{2,3,4,5,6,7,8,9,10,11,12,13,14,15,16,17,18,19,20,21,22,23,24,25,26,27,28,29,30,31,32,33,34,35,36,37,38,39,40,41},
	{2,3,4,5,6,7,8,9,10,11,12,13,14,15,16,17,18,19,20,21,22,23,24,25,26,27,28,29,30,31,32,33,34,35,36,37,38,39,40,41},
	{2,3,4,5,6,7,8,9,10,11,12,13,14,15,16,17,18,19,20,21,22,23,24,25,26,27,28,29,30,31,32,33,34,35,36,37,38,39,40,41},
	{2,3,5,6,7,8,11,12,13,14,15,16,17,18,19,21,22,23,24,25,27,28,29,30,31,32,33,34,35,37,38,41},
	{2,3,4,5,6,7,8,9,10,11,12,13,14,15,16,17,18,19,20,21,22,23,24,25,26,27,28,29,30,31,32,33,34,35,36,37,38,39,40,41},
	{2,3,4,5,6,7,8,9,10,11,12,13,14,15,16,17,18,19,20,21,22,23,24,25,26,27,28,29,30,31,32,33,34,35,36,37,38,39,40,41},
	{2,3,4,5,6,7,8,9,10,11,12,13,14,15,16,17,18,19,20,21,22,23,24,25,26,27,28,29,30,31,32,33,34,35,36,37,38,39,40,41},
	{4,5,6,7,8,9,10,11,12,13,16,17,20,21,22,23,24,25,26,27,28,29,30,31,32,33,34,36,38,39,40,41},
	{4,5,6,7,8,9,10,11,12,13,16,17,20,21,22,23,24,25,26,27,28,29,30,31,32,33,34,36,38,39,40,41},
	{2,3,5,6,7,8,11,12,13,14,15,16,17,18,19,21,22,23,24,25,27,28,29,30,31,32,33,34,35,37,38,41},
	{2,3,4,5,6,7,8,9,10,11,12,13,14,15,16,17,18,19,20,21,22,23,24,25,26,27,28,29,30,31,32,33,34,35,36,37,38,39,40,41},
	{2,3,4,5,6,7,8,9,10,11,12,13,14,15,16,17,18,19,20,21,22,23,24,25,26,27,28,29,30,31,32,33,34,35,36,37,38,39,40,41},
	{2,3,4,5,6,7,8,9,10,11,12,13,14,15,16,17,18,19,20,21,22,23,24,25,26,27,28,29,30,31,32,33,34,35,36,37,38,39,40,41},
	{2,3,4,5,6,7,8,9,10,11,12,13,14,15,16,17,18,19,20,21,22,23,24,25,26,27,28,29,30,31,32,33,34,35,36,37,38,39,40,41},
	{2,3,4,5,6,7,8,9,10,11,12,13,14,15,16,17,18,19,20,21,22,23,24,25,26,27,28,29,30,31,32,33,34,35,36,37,38,39,40,41},
	{2,3,4,5,6,7,8,9,10,11,12,13,14,15,16,17,18,19,20,21,22,23,24,25,26,27,28,29,30,31,32,33,34,35,36,37,38,39,40,41},
	{4,5,6,7,8,9,10,11,12,13,16,17,20,21,22,23,24,25,26,27,28,29,30,31,32,33,34,36,38,39,40,41},
	{2,3,4,5,6,7,8,9,10,11,12,13,14,15,16,17,18,19,20,21,22,23,24,25,26,27,28,29,30,31,32,33,34,35,36,37,38,39,40,41},
	{2,3,4,5,6,7,8,9,10,12,13,14,15,16,17,18,19,20,21,22,24,26,27,28,32,33,35,36,37,39,40,41},
	{2,3,4,5,6,7,8,9,10,11,12,13,14,15,16,17,18,19,20,21,22,23,24,25,26,27,28,29,30,31,32,33,34,35,36,37,38,39,40,41},
	{2,3,4,5,6,7,8,9,10,11,12,13,14,15,16,17,18,19,20,21,22,23,24,25,26,27,28,29,30,31,32,33,34,35,36,37,38,39,40,41},
	{2,3,4,5,6,7,8,9,10,11,12,13,14,15,16,17,18,19,20,21,22,23,24,25,26,27,28,29,30,31,32,33,34,35,36,37,38,39,40,41},
	{2,3,4,5,6,7,8,9,10,11,12,13,14,15,16,17,18,19,20,21,22,23,24,25,26,27,28,29,30,31,32,33,34,35,36,37,38,39,40,41}];
